MLIP output to VASP                     
   1.00000000000000     
    10.2948029999999999    0.5362940000000000   -0.0311270000000000
     0.5029120000000000    9.3271730000000002    0.2365360000000000
     0.0147530000000000    0.1298600000000000    9.3901959999999995
   Hf   Ni   Ti
    16    13    25
Direct
  0.3299137987513348  0.3499028789817942  0.0189167083872235
  0.2819240940568832  0.7116264399009964  0.9927143352159291
  0.6714770759643045  0.0027911738332591  0.3066541799393434
  0.3050907887997454  0.3896479545753095  0.3666237416556086
  0.0287118965869269  0.6246657535641589  0.3508965922031848
  0.9760036110463801  0.0021264522595530  0.6595050925336778
  0.8677886717296346  0.1807430931877221  0.1074160123702086
  0.7963732162394379  0.4887238906282647  0.1968084494624236
  0.5450699764246707  0.8599614305999808  0.0826983330494642
  0.2188871629753990  0.1170129582170816  0.5035963598243427
  0.5128365265451222  0.1660582298962439  0.5079855961574182
  0.5496554710849892  0.4994492540542268  0.4717809295025859
  0.4713544464427883  0.8345661512156184  0.5351113981764044
  0.7877934013606165  0.7963547173504821  0.5238788504287797
  0.1059553009515639  0.2067290122100403  0.8606079380047689
  0.8638670188551743  0.4673869600499785  0.8512649519470656
  0.6464464258724405  0.0979246231338138  0.0296839639173214
  0.0365964966163119  0.3813715388274659  0.0776081820701151
  0.6915177229009473  0.6547481623855589  0.9836347783180130
  0.6619179409115503  0.7056199004210129  0.2995648877809103
  0.3565689924700237  0.0657297367070910  0.7518601820480484
  0.7019083892702866  0.0127294094686405  0.6412008161315015
  0.9289572646526167  0.2797744311755750  0.6328913611520264
  0.6807760165665826  0.6263010638459363  0.6595066563711569
  0.1937582150693729  0.5388861054441563  0.1665462731686489
  0.1571614239918802  0.8294108523390662  0.2136128402725248
  0.8243228615476355  0.1463144864042079  0.8429621761202100
  0.1475112007693369  0.4912792423903838  0.8676893809531023
  0.2334259418429809  0.8665398336820971  0.7547368535429868
  0.0529704692885460  0.9297066278001509  0.9749091206279630
  0.3085273915305038  0.0078503764201656  0.0035406753468479
  0.6038528158708729  0.3802836244886123  0.9468597204145226
  0.9973748062594652  0.6500947567985946  0.0270723286500427
  0.9790801733105070  0.0044577146647953  0.3430255788653085
  0.3751049511033386  0.9404198092833767  0.3054305524404768
  0.0160137630292567  0.3128776427754616  0.3462037037661716
  0.5701916993654663  0.3056304595485315  0.2243989103791222
  0.3888329252105081  0.7140186156145916  0.3023185133941837
  0.3812088524770871  0.3330595230397577  0.7105897811514623
  0.6775263824484412  0.3197265534189810  0.6903033252625335
  0.0342554197914282  0.7182944141255376  0.7360754536872562
  0.2845199959400944  0.6051972916474710  0.6645910593704869
  0.1587125580187063  0.1384499305183127  0.1807327400863983
  0.4287541898349332  0.1400816174753459  0.2115063930716516
  0.5017155553379169  0.5647600699439437  0.1244885423250750
  0.8507076247238246  0.8241203958372552  0.1727483467102289
  0.7784742580555672  0.2321103352553706  0.4177319747075074
  0.1093640729919798  0.4314659960365290  0.6082143476729911
  0.8543557013493697  0.4763953760858683  0.5075856641584551
  0.1631287679088231  0.8208646593439042  0.4952743974775515
  0.5588593700309303  0.0509236602062373  0.7972453755726079
  0.4956637360634844  0.5702001374939485  0.8291867033861919
  0.5309072307933462  0.7705390563244663  0.7330244569065556
  0.8263273153868553  0.8640952635846801  0.8889851130986841
 
  0.00000000E+00  0.00000000E+00  0.00000000E+00
  0.00000000E+00  0.00000000E+00  0.00000000E+00
  0.00000000E+00  0.00000000E+00  0.00000000E+00
  0.00000000E+00  0.00000000E+00  0.00000000E+00
  0.00000000E+00  0.00000000E+00  0.00000000E+00
  0.00000000E+00  0.00000000E+00  0.00000000E+00
  0.00000000E+00  0.00000000E+00  0.00000000E+00
  0.00000000E+00  0.00000000E+00  0.00000000E+00
  0.00000000E+00  0.00000000E+00  0.00000000E+00
  0.00000000E+00  0.00000000E+00  0.00000000E+00
  0.00000000E+00  0.00000000E+00  0.00000000E+00
  0.00000000E+00  0.00000000E+00  0.00000000E+00
  0.00000000E+00  0.00000000E+00  0.00000000E+00
  0.00000000E+00  0.00000000E+00  0.00000000E+00
  0.00000000E+00  0.00000000E+00  0.00000000E+00
  0.00000000E+00  0.00000000E+00  0.00000000E+00
  0.00000000E+00  0.00000000E+00  0.00000000E+00
  0.00000000E+00  0.00000000E+00  0.00000000E+00
  0.00000000E+00  0.00000000E+00  0.00000000E+00
  0.00000000E+00  0.00000000E+00  0.00000000E+00
  0.00000000E+00  0.00000000E+00  0.00000000E+00
  0.00000000E+00  0.00000000E+00  0.00000000E+00
  0.00000000E+00  0.00000000E+00  0.00000000E+00
  0.00000000E+00  0.00000000E+00  0.00000000E+00
  0.00000000E+00  0.00000000E+00  0.00000000E+00
  0.00000000E+00  0.00000000E+00  0.00000000E+00
  0.00000000E+00  0.00000000E+00  0.00000000E+00
  0.00000000E+00  0.00000000E+00  0.00000000E+00
  0.00000000E+00  0.00000000E+00  0.00000000E+00
  0.00000000E+00  0.00000000E+00  0.00000000E+00
  0.00000000E+00  0.00000000E+00  0.00000000E+00
  0.00000000E+00  0.00000000E+00  0.00000000E+00
  0.00000000E+00  0.00000000E+00  0.00000000E+00
  0.00000000E+00  0.00000000E+00  0.00000000E+00
  0.00000000E+00  0.00000000E+00  0.00000000E+00
  0.00000000E+00  0.00000000E+00  0.00000000E+00
  0.00000000E+00  0.00000000E+00  0.00000000E+00
  0.00000000E+00  0.00000000E+00  0.00000000E+00
  0.00000000E+00  0.00000000E+00  0.00000000E+00
  0.00000000E+00  0.00000000E+00  0.00000000E+00
  0.00000000E+00  0.00000000E+00  0.00000000E+00
  0.00000000E+00  0.00000000E+00  0.00000000E+00
  0.00000000E+00  0.00000000E+00  0.00000000E+00
  0.00000000E+00  0.00000000E+00  0.00000000E+00
  0.00000000E+00  0.00000000E+00  0.00000000E+00
  0.00000000E+00  0.00000000E+00  0.00000000E+00
  0.00000000E+00  0.00000000E+00  0.00000000E+00
  0.00000000E+00  0.00000000E+00  0.00000000E+00
  0.00000000E+00  0.00000000E+00  0.00000000E+00
  0.00000000E+00  0.00000000E+00  0.00000000E+00
  0.00000000E+00  0.00000000E+00  0.00000000E+00
  0.00000000E+00  0.00000000E+00  0.00000000E+00
  0.00000000E+00  0.00000000E+00  0.00000000E+00
  0.00000000E+00  0.00000000E+00  0.00000000E+00
