PREC=Normal
ENCUT=200
NELMIN=2
ISMEAR = 0; SIGMA = 0.05
ISIF=3
EDIFF  = 1.0E-06
EDIFFG = -0.01
VOSKOWN=0
NWRITE=1
NELM=60
ALGO=Normal
ISPIN=1
INIWAV=1
ISTART=0
ICHARG=2
LWAVE=.FALSE.
LCHARG=.FALSE.
ADDGRID=.FALSE.
LREAL=Auto
NCORE=4

