MLIP output to VASP
1
                  10.294803                0.536294               -0.031127
                   0.502912                9.327173                0.236536
                   0.014753                 0.12986                9.390196
 16 13 25
cart
                   3.572647                3.442992                0.250127
                   3.274884                6.917571                9.481332
                   6.918652                0.425965                2.859302
                   3.342217                3.845542                3.525338
                   0.614912                5.887331                 3.44185
                  10.058564                0.628902                6.163005
          9.026196000000001                2.165161                1.024398
                   8.447194                 5.01106                1.938882
                   6.045093                8.324066                0.962999
                   2.319677                1.274185                4.749733
                   5.370558                1.889852                  4.7934
                   5.916734                5.014492                4.531144
                   5.280109                8.106417                5.207534
          8.518402999999999                7.918258                 5.08317
                   1.207452                2.096779                8.126878
          9.140954000000001                4.933231                8.077209
                   6.704724                  1.2639                0.281779
                   0.569695                3.586823                0.817825
                   7.462831                6.605541       9.369870000000001
                   7.173599                6.975323                2.959274
                   3.714956                0.901935                7.064563
                    7.24187                0.578425                6.002164
                   9.713471                3.189886                5.980235
                   7.333159                6.292358                6.319849
                   2.268172                5.151823                1.685337
                   2.038218                7.848083                 2.19716
          8.572260999999999                1.916247                 7.92453
                    1.77847                4.774034                8.259387
                   2.850002                8.305562                7.284829
                   1.027264                8.826544       9.372847999999999
                   3.180229                0.239143                0.025501
                   6.421764                3.993773                8.962353
                  10.595117                6.601948                 0.37694
                   10.08674                0.611198                3.191656
                   4.339086                9.012288                 3.07882
                   0.327316                 2.97181                3.324429
                   6.027027                3.185599                2.161694
                   4.366507                6.907563                2.995618
                   4.102453                3.403221                6.739492
                   7.145979                3.435141                6.536621
                   0.724751                6.813614                7.080729
                   3.243243                 5.88367                6.374935
                   1.706209                1.399933                1.724924
                   4.487509                 1.56397                2.005875
                   5.450924                5.552848                1.286941
          9.174875999999999                8.165376                1.790595
                   8.137133                2.636671                3.953256
                   1.351844                4.161992                5.809905
          9.042496999999999                4.967523                 4.85242
                   2.099508                7.808148                 4.83981
                   5.790719                0.878217                 7.48094
                   5.401754                5.691855                 7.90567
                   5.863913                7.566864                7.048978
                   8.954556                8.618164                8.526413
